109 107 542 541 543 544 545 546 547 103 104 105 106 118 119 120 121 122 117 116 115 114 110 111 112 113 161 168 162 160 154 155 159 156 153 157 158 145 144 143 142 146 147 148 152 149 150 151 141 140 139 136 135 134 133 132 131 130 129 137 138 128 127 126 125 124 69 70 68 67 66 65 72 71 123 73 74 75 76 64 63 61 60 59 58 56 55 54 53 83 82 57 81 80 79 62 78 77 88 89 90 87 86 85 84 51 52 50 49 48 47 46 45 44 43 42 39 38 37 36 33 34 35 40 41 557 556 555 91 92 93 94 95 96 97 98 99 100 102 101 553 554 552 551 550 559 558 560 561 562 549 548 564 563 565 566 567 27 26 21 24 25 28 29 30 32 31 22 23 12 13 14 15 16 11 10 9 7 8 17 18 19 20 568 569 570 474 473 475 476 477 478 479 480 481 482 483 485 484 536 537 539 538 540 176 177 178 187 188 186 227 228 229 230 231 533 532 531 489 488 534 535 487 486 490 529 530 233 232 234 235 236 528 527 512 511 510 509 513 514 515 516 517 503 502 501 500 499 452 453 450 449 448 447 446 445 444 443 442 441 440 439 454 455 456 457 458 459 460 461 462 463 464 466 467 465 496 497 498 519 518 520 521 522 523 526 491 492 493 525 524 494 472 471 495 470 469 468 571 573 572 6 5 0 4 1 2 3 437 438 436 435 434 433 432 430 431 429 428 427 426 425 424 423 422 421 420 419 417 418 410 411 412 356 402 403 401 360 359 358 357 355 354 353 352 413 414 416 415 351 350 349 348 347 362 361 363 364 346 345 344 343 342 366 367 365 368 369 370 327 328 329 326 325 324 323 322 373 372 371 396 395 394 397 398 399 400 404 405 406 407 408 409 385 384 383 382 386 387 388 389 390 391 393 392 381 380 379 378 377 376 375 374 315 314 316 313 312 451 311 310 309 504 505 308 307 506 507 508 302 301 303 304 306 305 318 317 319 320 321 297 296 295 294 293 330 331 332 340 341 339 338 337 336 333 335 334 283 284 285 286 287 280 281 282 279 278 277 276 288 289 290 291 292 275 274 273 272 271 268 269 270 267 298 266 265 264 263 262 299 258 259 261 260 257 256 255 253 254 252 251 250 249 248 300 241 242 244 243 240 237 238 239 245 247 246 216 217 215 214 213 212 211 210 209 218 220 221 222 223 224 225 226 189 190 191 192 219 193 194 195 196 197 205 206 207 208 203 204 202 201 165 164 163 167 166 200 199 198 184 185 183 182 179 181 180 169 171 170 172 175 174 173 108